1 200 198 197 195 43 44 46 194 218 193 45 48 196 192 224 199 133 191 205 190 225 47 189 27 188 187 117 116 223 115 118 119 186 185 184 120 175 121 122 123 170 171 172 173 182 181 174 180 179 176 178 177 145 144 143 201 142 141 159 157 156 155 154 153 146 147 148 149 152 150 151 167 166 165 164 213 158 163 162 160 161 140 139 138 137 136 183 135 134 215 132 129 128 222 130 211 131 86 85 82 83 84 210 87 90 92 91 88 89 103 104 220 105 107 109 108 106 67 66 65 110 125 126 127 214 212 168 169 124 111 112 113 114 64 63 62 61 60 58 59 2 207 49 50 51 57 56 55 52 53 54 72 73 71 70 68 69 102 101 100 99 98 75 74 76 216 219 31 32 206 217 97 96 95 209 93 94 221 81 80 79 78 77 202 30 29 35 33 34 28 204 26 25 208 24 23 22 21 20 203 19 18 17 16 15 14 13 12 36 37 38 39 11 10 9 40 41 42 8 7 6 5 4 3 
4114